NAME : single.4861.tour
COMMENT : Length = 4861
COMMENT : Found by LKH [Keld Helsgaun] Thu Jan  1 08:34:00 1970
TYPE : TOUR
DIMENSION : 17
TOUR_SECTION
1
3
15
2
16
11
13
12
10
9
6
8
5
7
4
14
17
-1
EOF
